27 69 1 76 51 9 34 78 79 3 77 28 
89 18 82 48 19 11 62 88 7 52 
2 57 42 43 15 41 22 74 72 4 55 25 24 29 68 80 12 
26 54 39 67 23 56 75 73 21 40 53 
94 95 92 98 91 44 14 38 86 16 61 93 99 97 87 13 58 
50 33 81 35 71 65 66 20 30 70 31 10 32 90 63 64 49 36 47 46 8 45 17 84 83 60 5 85 100 37 59 96 6 
